objective value:                                  -18
t_n_5                                               1 	(obj:-1)
t_n_129                                             1 	(obj:-1)
t_n_199                                             1 	(obj:-1)
t_n_243                                             1 	(obj:-1)
t_n_266                                             1 	(obj:-1)
t_n_274                                             1 	(obj:-1)
t_n_292                                             1 	(obj:-1)
t_n_381                                             1 	(obj:-1)
t_n_408                                             1 	(obj:-1)
t_n_410                                             1 	(obj:-1)
t_n_472                                             1 	(obj:-1)
t_n_512                                             1 	(obj:-1)
t_n_634                                             1 	(obj:-1)
t_n_715                                             1 	(obj:-1)
t_n_761                                             1 	(obj:-1)
t_n_820                                             1 	(obj:-1)
t_n_823                                             1 	(obj:-1)
t_n_841                                             1 	(obj:-1)
